g3 0 1 0	# problem 2698
 196 47 1 0 46	# vars, constraints, objectives, ranges, eqns
 11 0	# nonlinear constraints, objectives
 0 0	# network constraints: nonlinear, linear
 140 0 0	# nonlinear vars in constraints, objectives, both
 0 0 0 1	# linear network variables; functions; arith, flags
 0 0 0 0 0	# discrete variables: binary, integer, nonlinear (b,c,o)
 667 10	# nonzeros in Jacobian, gradients
 0 0	# max name lengths: constraints, variables
 0 0 0 0 0	# common exprs: b,c,o,c1,o1
b
0 0 1e+06
0 0 1e+06
0 0 1e+06
0 0 1e+06
0 0 1e+06
0 0 1e+06
0 0 1e+06
0 0 1e+06
0 0 1e+06
0 0 1e+06
0 0 1e+06
0 0 1e+06
0 0 1e+06
0 0 1e+06
0 0 1e+06
0 0 1e+06
0 0 1e+06
0 0 1e+06
0 0 1e+06
0 0 1e+06
0 0 1e+06
0 0 1e+06
0 0 1e+06
0 0 1e+06
0 0 1e+06
0 0 1e+06
0 0 1e+06
0 0 1e+06
0 0 1e+06
0 0 1e+06
0 0 1e+06
0 0 1e+06
0 0 1e+06
0 0 1e+06
0 0 1e+06
0 0 1e+06
0 0 1e+06
0 0 1e+06
0 0 1e+06
0 0 1e+06
0 0 1e+06
0 0 1e+06
0 0 1e+06
0 0 1e+06
0 0 1e+06
0 0 1e+06
0 0 1e+06
0 0 1e+06
0 0 1e+06
0 0 1e+06
0 0 1e+06
0 0 1e+06
0 0 1e+06
0 0 1e+06
0 0 1e+06
0 0 1e+06
0 0 1e+06
0 0 1e+06
0 0 1e+06
0 0 1e+06
0 0 1e+06
0 0 1e+06
0 0 1e+06
0 0 1e+06
0 0 1e+06
0 0 1e+06
0 0 1e+06
0 0 1e+06
0 0 1e+06
0 0 1e+06
0 0 1e+06
0 0 1e+06
0 0 1e+06
0 0 1e+06
0 0 1e+06
0 0 1e+06
0 0 1e+06
0 0 1e+06
0 0 1e+06
0 0 1e+06
0 0 1e+06
0 0 1e+06
0 0 1e+06
0 0 1e+06
0 0 1e+06
0 0 1e+06
0 0 1e+06
0 0 1e+06
0 0 1e+06
0 0 1e+06
0 0 1e+06
0 0 1e+06
0 0 1e+06
0 0 1e+06
0 0 1e+06
0 0 1e+06
0 0 1e+06
0 0 1e+06
0 0 1e+06
0 0 1e+06
0 0 1e+06
0 0 1e+06
0 0 1e+06
0 0 1e+06
0 0 1e+06
0 0 1e+06
0 0 1e+06
0 0 1e+06
0 0 1e+06
0 0 1e+06
0 0 1e+06
0 0 1e+06
0 0 1e+06
0 0 1e+06
0 0 1e+06
0 0 1e+06
0 0 1e+06
0 0 1e+06
0 0 1e+06
0 0 1e+06
0 0 30
0 0 1e+06
0 0 100
0 0 1e+06
0 0 50
0 0 1e+06
0 0 227
0 0 1e+06
0 0 100
0 0 1e+06
0 0 300
0 0 1e+06
0 0 12
0 0 1e+06
0 0 970
0 0 1e+06
0 0 20
0 0 1e+06
0 0 250
0 0 1e+06
0 0 1e+06
0 0 1e+06
0 0 1e+06
0 0 1e+06
0 0 1e+06
0 0 1e+06
0 0 1e+06
0 0 1e+06
0 0 1e+06
0 0 1e+06
0 0 1e+06
0 0 1e+06
0 0 1e+06
0 0 1e+06
0 0 1e+06
0 0 1e+06
0 0 1e+06
0 0 1e+06
0 0 1e+06
0 0 1e+06
0 0 1e+06
0 0 1e+06
0 0 1e+06
0 0 1e+06
0 0 1e+06
0 0 1e+06
0 0 1e+06
0 0 1e+06
0 0 1e+06
0 0 1e+06
0 0 1e+06
0 0 1e+06
0 0 1e+06
0 0 1e+06
0 0 1e+06
0 0 1e+06
0 0 1e+06
0 0 1e+06
0 0 1e+06
0 0 1e+06
0 0 1e+06
0 0 1e+06
0 0 1e+06
0 0 1e+06
0 0 1e+06
0 0 1e+06
0 0 1e+06
0 0 1e+06
0 0 1e+06
0 0 1e+06
0 0 1e+06
0 0 1e+06
0 0 1e+06
0 0 1e+06
0 0 1e+06
0 0 1e+06
r
4 0
4 0
4 0
4 0
4 0
4 0
4 0
4 0
4 0
4 0
1 0
4 -90
4 -350
4 -200
4 -40
4 -130
4 0
4 0
4 0
4 0
4 0
4 0
4 0
4 0
4 0
4 0
4 0
4 0
4 0
4 0
4 0
4 0
4 0
4 0
4 0
4 0
4 0
4 0
4 0
4 0
4 0
4 0
4 0
4 0
4 0
4 0
4 0
C0
o54
11
o2
v121
v10
o16
o2
v120
v0
o2
v123
v11
o2
v125
v12
o2
v127
v13
o2
v129
v14
o2
v131
v15
o2
v133
v16
o2
v135
v17
o2
v137
v18
o2
v139
v19
C1
o54
11
o2
v121
v20
o16
o2
v122
v1
o2
v123
v21
o2
v125
v22
o2
v127
v23
o2
v129
v24
o2
v131
v25
o2
v133
v26
o2
v135
v27
o2
v137
v28
o2
v139
v29
C2
o54
11
o2
v121
v30
o16
o2
v124
v2
o2
v123
v31
o2
v125
v32
o2
v127
v33
o2
v129
v34
o2
v131
v35
o2
v133
v36
o2
v135
v37
o2
v137
v38
o2
v139
v39
C3
o54
11
o2
v121
v40
o16
o2
v126
v3
o2
v123
v41
o2
v125
v42
o2
v127
v43
o2
v129
v44
o2
v131
v45
o2
v133
v46
o2
v135
v47
o2
v137
v48
o2
v139
v49
C4
o54
11
o2
v121
v50
o16
o2
v128
v4
o2
v123
v51
o2
v125
v52
o2
v127
v53
o2
v129
v54
o2
v131
v55
o2
v133
v56
o2
v135
v57
o2
v137
v58
o2
v139
v59
C5
o54
11
o2
v121
v60
o16
o2
v130
v5
o2
v123
v61
o2
v125
v62
o2
v127
v63
o2
v129
v64
o2
v131
v65
o2
v133
v66
o2
v135
v67
o2
v137
v68
o2
v139
v69
C6
o54
11
o2
v121
v70
o16
o2
v132
v6
o2
v123
v71
o2
v125
v72
o2
v127
v73
o2
v129
v74
o2
v131
v75
o2
v133
v76
o2
v135
v77
o2
v137
v78
o2
v139
v79
C7
o54
11
o2
v121
v80
o16
o2
v134
v7
o2
v123
v81
o2
v125
v82
o2
v127
v83
o2
v129
v84
o2
v131
v85
o2
v133
v86
o2
v135
v87
o2
v137
v88
o2
v139
v89
C8
o54
11
o2
v121
v90
o16
o2
v136
v8
o2
v123
v91
o2
v125
v92
o2
v127
v93
o2
v129
v94
o2
v131
v95
o2
v133
v96
o2
v135
v97
o2
v137
v98
o2
v139
v99
C9
o54
11
o2
v121
v100
o16
o2
v138
v9
o2
v123
v101
o2
v125
v102
o2
v127
v103
o2
v129
v104
o2
v131
v105
o2
v133
v106
o2
v135
v107
o2
v137
v108
o2
v139
v109
C10
o54
10
o2
v121
v110
o2
v123
v111
o2
v125
v112
o2
v127
v113
o2
v129
v114
o2
v131
v115
o2
v133
v116
o2
v135
v117
o2
v137
v118
o2
v139
v119
C11
n0
C12
n0
C13
n0
C14
n0
C15
n0
C16
n0
C17
n0
C18
n0
C19
n0
C20
n0
C21
n0
C22
n0
C23
n0
C24
n0
C25
n0
C26
n0
C27
n0
C28
n0
C29
n0
C30
n0
C31
n0
C32
n0
C33
n0
C34
n0
C35
n0
C36
n0
C37
n0
C38
n0
C39
n0
C40
n0
C41
n0
C42
n0
C43
n0
C44
n0
C45
n0
C46
n0
O0 0
n0
k195
3
6
9
12
15
18
21
24
27
30
33
36
39
42
45
48
51
54
57
60
63
66
69
72
75
78
81
84
87
90
93
96
99
102
105
108
111
114
117
120
123
126
129
132
135
138
141
144
147
150
153
156
159
162
165
168
171
174
177
180
183
186
189
192
195
198
201
204
207
210
213
216
219
222
225
228
231
234
237
240
243
246
249
252
255
258
261
264
267
270
273
276
279
282
285
288
291
294
297
300
303
306
309
312
315
318
321
324
327
330
333
336
339
342
345
348
351
354
357
360
362
374
376
388
390
402
404
416
418
430
432
444
446
458
460
472
474
486
488
500
503
506
509
512
515
518
521
524
527
530
533
536
539
542
545
548
551
554
557
560
563
566
569
572
575
578
581
584
587
590
593
596
599
602
605
608
611
614
617
620
623
626
629
632
635
638
641
644
647
650
653
656
659
662
665
J0 27
0 0
10 0
11 0
12 0
13 0
14 0
15 0
16 0
17 0
18 0
19 0
120 0
121 0
123 0
125 0
127 0
129 0
131 0
133 0
135 0
137 0
139 0
141 330
152 50
163 150
174 240
185 120
J1 27
1 0
20 0
21 0
22 0
23 0
24 0
25 0
26 0
27 0
28 0
29 0
121 0
122 0
123 0
125 0
127 0
129 0
131 0
133 0
135 0
137 0
139 0
142 330
153 50
164 150
175 240
186 120
J2 27
2 0
30 0
31 0
32 0
33 0
34 0
35 0
36 0
37 0
38 0
39 0
121 0
123 0
124 0
125 0
127 0
129 0
131 0
133 0
135 0
137 0
139 0
143 330
154 50
165 150
176 240
187 120
J3 27
3 0
40 0
41 0
42 0
43 0
44 0
45 0
46 0
47 0
48 0
49 0
121 0
123 0
125 0
126 0
127 0
129 0
131 0
133 0
135 0
137 0
139 0
144 330
155 50
166 150
177 240
188 120
J4 27
4 0
50 0
51 0
52 0
53 0
54 0
55 0
56 0
57 0
58 0
59 0
121 0
123 0
125 0
127 0
128 0
129 0
131 0
133 0
135 0
137 0
139 0
145 330
156 50
167 150
178 240
189 120
J5 27
5 0
60 0
61 0
62 0
63 0
64 0
65 0
66 0
67 0
68 0
69 0
121 0
123 0
125 0
127 0
129 0
130 0
131 0
133 0
135 0
137 0
139 0
146 330
157 50
168 150
179 240
190 120
J6 27
6 0
70 0
71 0
72 0
73 0
74 0
75 0
76 0
77 0
78 0
79 0
121 0
123 0
125 0
127 0
129 0
131 0
132 0
133 0
135 0
137 0
139 0
147 330
158 50
169 150
180 240
191 120
J7 27
7 0
80 0
81 0
82 0
83 0
84 0
85 0
86 0
87 0
88 0
89 0
121 0
123 0
125 0
127 0
129 0
131 0
133 0
134 0
135 0
137 0
139 0
148 330
159 50
170 150
181 240
192 120
J8 27
8 0
90 0
91 0
92 0
93 0
94 0
95 0
96 0
97 0
98 0
99 0
121 0
123 0
125 0
127 0
129 0
131 0
133 0
135 0
136 0
137 0
139 0
149 330
160 50
171 150
182 240
193 120
J9 27
9 0
100 0
101 0
102 0
103 0
104 0
105 0
106 0
107 0
108 0
109 0
121 0
123 0
125 0
127 0
129 0
131 0
133 0
135 0
137 0
138 0
139 0
150 330
161 50
172 150
183 240
194 120
J10 26
110 0
111 0
112 0
113 0
114 0
115 0
116 0
117 0
118 0
119 0
121 0
123 0
125 0
127 0
129 0
131 0
133 0
135 0
137 0
139 0
140 330
151 50
162 150
173 240
184 120
195 -10
J11 11
140 -1
141 -1
142 -1
143 -1
144 -1
145 -1
146 -1
147 -1
148 -1
149 -1
150 -1
J12 11
151 -1
152 -1
153 -1
154 -1
155 -1
156 -1
157 -1
158 -1
159 -1
160 -1
161 -1
J13 11
162 -1
163 -1
164 -1
165 -1
166 -1
167 -1
168 -1
169 -1
170 -1
171 -1
172 -1
J14 11
173 -1
174 -1
175 -1
176 -1
177 -1
178 -1
179 -1
180 -1
181 -1
182 -1
183 -1
J15 11
184 -1
185 -1
186 -1
187 -1
188 -1
189 -1
190 -1
191 -1
192 -1
193 -1
194 -1
J16 16
0 1
10 -1
11 -1
12 -1
13 -1
14 -1
15 -1
16 -1
17 -1
18 -1
19 -1
141 -1
152 -1
163 -1
174 -1
185 -1
J17 16
1 1
20 -1
21 -1
22 -1
23 -1
24 -1
25 -1
26 -1
27 -1
28 -1
29 -1
142 -1
153 -1
164 -1
175 -1
186 -1
J18 16
2 1
30 -1
31 -1
32 -1
33 -1
34 -1
35 -1
36 -1
37 -1
38 -1
39 -1
143 -1
154 -1
165 -1
176 -1
187 -1
J19 16
3 1
40 -1
41 -1
42 -1
43 -1
44 -1
45 -1
46 -1
47 -1
48 -1
49 -1
144 -1
155 -1
166 -1
177 -1
188 -1
J20 16
4 1
50 -1
51 -1
52 -1
53 -1
54 -1
55 -1
56 -1
57 -1
58 -1
59 -1
145 -1
156 -1
167 -1
178 -1
189 -1
J21 16
5 1
60 -1
61 -1
62 -1
63 -1
64 -1
65 -1
66 -1
67 -1
68 -1
69 -1
146 -1
157 -1
168 -1
179 -1
190 -1
J22 16
6 1
70 -1
71 -1
72 -1
73 -1
74 -1
75 -1
76 -1
77 -1
78 -1
79 -1
147 -1
158 -1
169 -1
180 -1
191 -1
J23 16
7 1
80 -1
81 -1
82 -1
83 -1
84 -1
85 -1
86 -1
87 -1
88 -1
89 -1
148 -1
159 -1
170 -1
181 -1
192 -1
J24 16
8 1
90 -1
91 -1
92 -1
93 -1
94 -1
95 -1
96 -1
97 -1
98 -1
99 -1
149 -1
160 -1
171 -1
182 -1
193 -1
J25 16
9 1
100 -1
101 -1
102 -1
103 -1
104 -1
105 -1
106 -1
107 -1
108 -1
109 -1
150 -1
161 -1
172 -1
183 -1
194 -1
J26 12
0 1
10 -1
20 -1
30 -1
40 -1
50 -1
60 -1
70 -1
80 -1
90 -1
100 -1
110 -1
J27 12
1 1
11 -1
21 -1
31 -1
41 -1
51 -1
61 -1
71 -1
81 -1
91 -1
101 -1
111 -1
J28 12
2 1
12 -1
22 -1
32 -1
42 -1
52 -1
62 -1
72 -1
82 -1
92 -1
102 -1
112 -1
J29 12
3 1
13 -1
23 -1
33 -1
43 -1
53 -1
63 -1
73 -1
83 -1
93 -1
103 -1
113 -1
J30 12
4 1
14 -1
24 -1
34 -1
44 -1
54 -1
64 -1
74 -1
84 -1
94 -1
104 -1
114 -1
J31 12
5 1
15 -1
25 -1
35 -1
45 -1
55 -1
65 -1
75 -1
85 -1
95 -1
105 -1
115 -1
J32 12
6 1
16 -1
26 -1
36 -1
46 -1
56 -1
66 -1
76 -1
86 -1
96 -1
106 -1
116 -1
J33 12
7 1
17 -1
27 -1
37 -1
47 -1
57 -1
67 -1
77 -1
87 -1
97 -1
107 -1
117 -1
J34 12
8 1
18 -1
28 -1
38 -1
48 -1
58 -1
68 -1
78 -1
88 -1
98 -1
108 -1
118 -1
J35 12
9 1
19 -1
29 -1
39 -1
49 -1
59 -1
69 -1
79 -1
89 -1
99 -1
109 -1
119 -1
J36 16
110 -1
111 -1
112 -1
113 -1
114 -1
115 -1
116 -1
117 -1
118 -1
119 -1
140 -1
151 -1
162 -1
173 -1
184 -1
195 1
J37 2
120 -0.05
121 1
J38 2
122 -0.2
123 1
J39 2
124 -0.15
125 1
J40 2
126 -0.88
127 1
J41 2
128 -0.7
129 1
J42 2
130 -0.4
131 1
J43 2
132 -0.33
133 1
J44 2
134 -0.3
135 1
J45 2
136 -0.4
137 1
J46 2
138 -0.3
139 1
G0 10
0 1
1 1
2 1
3 1
4 1
5 1
6 1
7 1
8 1
9 1
